s = array1d(1..100, [0, 5, 8, 0, 0, 0, 0, 4, 6, 0, 0, 7, 0, 0, 0, 0, 6, 0, 0, 1, 1, 0, 0, 0, 0, 4, 0, 0, 2, 0, 7, 0, 6, 5, 0, 0, 0, 0, 0, 0, 0, 0, 0, 0, 6, 0, 7, 0, 4, 0, 0, 0, 0, 0, 2, 1, 8, 0, 0, 7, 5, 0, 0, 2, 9, 0, 0, 0, 0, 0, 0, 3, 0, 0, 0, 2, 0, 5, 0, 0, 0, 0, 0, 0, 0, 0, 5, 6, 0, 8, 0, 0, 3, 9, 7, 0, 0, 0, 0, 0]);
n = 10;
